
Gurobi 6.5.2 (win64) logging started 07/23/16 02:34:10


Gurobi 6.5.2 (win64) logging started 07/23/16 02:34:10

Optimize a model with 6728 rows, 1014 columns and 15526 nonzeros
Coefficient statistics:
  Matrix range    [4e-06, 1e+03]
  Objective range [1e+00, 1e+00]
  Bounds range    [1e+00, 1e+00]
  RHS range       [1e+00, 1e+03]
Found heuristic solution: objective 288.128
Presolve removed 6706 rows and 991 columns
Presolve time: 0.00s
Presolved: 22 rows, 23 columns, 69 nonzeros
Variable types: 23 continuous, 0 integer (0 binary)

Root relaxation: objective 1.582890e+02, 16 iterations, 0.00 seconds

    Nodes    |    Current Node    |     Objective Bounds      |     Work
 Expl Unexpl |  Obj  Depth IntInf | Incumbent    BestBd   Gap | It/Node Time

*    0     0               0     158.2889806  158.28898  0.00%     -    0s

Explored 0 nodes (16 simplex iterations) in 0.01 seconds
Thread count was 8 (of 8 available processors)

Optimal solution found (tolerance 1.00e-04)
Best objective 1.582889806059e+02, best bound 1.582889806059e+02, gap 0.0%

Wrote requested result file 'H2\instance5\\Results5EC_Sol6.lp'

